
(set-logic ALL) 

(declare-datatype MyList ((Nil) (Cons (head Real) (tail MyList)) )) 
(declare-fun l0 () MyList) 
(declare-fun l1 () MyList) 
(declare-fun l2 () MyList) 
(declare-fun l3 () MyList) 
(declare-fun i0 () Real) 
(declare-fun i1 () Real) 
(assert (is-Cons Nil) )
(assert (not (= l3 l2)) )
(assert (not (is-Cons Nil)) )
(assert (is-Nil l3) )
(assert (or (= l0 Nil) (is-Cons l1) (is-Cons l1)) )
(assert (= l2 Nil) )
(assert (and (= l1 Nil) (= l0 l1) (is-Nil Nil)) )
(assert (not (= l2 Nil)) )
(check-sat)
